WARNING: using JuMP.getdual in module Main conflicts with an existing identifier.
  [nonlinear] <nonlin>: ((0.350000 * <_var1_>) + (0.340000 * <_var2_>) + (0.500000 * <_var3_>) + (0.490000 * <_var4_>) + (0.680000 * <_var5_>) + (0.670000 * <_var6_>) + ((-1.000000) * <_var15_>) + ((-1.000000) * <_var16_>) + (0.990000 * <_var19_>) + (0.990000 * <_var20_>) + ((-1.000000) * <_var30_>)) >= -0;
violation: left hand side is violated by 5.31000000000001 (scaled: 5.31000000000001)
all 1 solutions given by solution candidate storage are infeasible

presolving:
(round 1, fast)       0 del vars, 0 del conss, 0 add conss, 0 chg bounds, 0 chg sides, 0 chg coeffs, 20001 upgd conss, 0 impls, 0 clqs
(round 2, fast)       0 del vars, 1000 del conss, 0 add conss, 27006 chg bounds, 0 chg sides, 0 chg coeffs, 20001 upgd conss, 0 impls, 0 clqs
(round 3, fast)       1 del vars, 1001 del conss, 0 add conss, 34008 chg bounds, 0 chg sides, 0 chg coeffs, 20001 upgd conss, 0 impls, 0 clqs
presolving (4 rounds: 4 fast, 1 medium, 1 exhaustive):
 1 deleted vars, 1001 deleted constraints, 0 added constraints, 34009 tightened bounds, 0 added holes, 0 changed sides, 0 changed coefficients
 0 implications, 0 cliques
presolved problem has 34005 variables (0 bin, 0 int, 0 impl, 34005 cont) and 20000 constraints
  19000 constraints of type <linear>
   1000 constraints of type <nonlinear>
Presolving Time: 118.54

  node  | left  |LP iter|LP it/n| mem |  dualbound   | primalbound  |  gap   
      1 |     0 | 35233 |     - | 160M| 1.423762e+06 |      --      |    Inf 

******************************************************************************
This program contains Ipopt, a library for large-scale nonlinear optimization.
 Ipopt is released as open source code under the Eclipse Public License (EPL).
         For more information visit http://projects.coin-or.org/Ipopt
******************************************************************************

q     1 |     0 | 35233 |     - | 161M| 1.423762e+06 | 2.109782e+06 |  48.18%
      1 |     0 | 49879 |     - | 170M| 2.109782e+06 | 2.109782e+06 |   0.00%
      1 |     0 | 49879 |     - | 170M| 2.109782e+06 | 2.109782e+06 |   0.00%

SCIP Status        : problem is solved [optimal solution found]
Solving Time (sec) : 1218.45
Solving Nodes      : 1
Primal Bound       : +2.10978183274926e+06 (2 solutions)
Dual Bound         : +2.10978183274926e+06
Gap                : 0.00 %
WARNING: Nonlinear solver does not provide dual solutions
